peakDumbCharging = 7400; 
Machine = anon_enum(16); 
machineSpeed = [3700,3700,3700,3700,3700,3700,3700,3700,3700,3700,3700,3700,3700,3700,3700,3700]; 
machineLoad = [3700,3700,3700,3700,3700,3700,3700,3700,3700,3700,3700,3700,3700,3700,3700,3700]; 
Car = anon_enum(8); 
demandCar = [5840,12080,8480,2040,6040,7680,9440,7760]; 
arrivalCar = [77,73,65,64,61,59,47,42]; 
departureCar = [80,78,69,66,64,62,50,46]; 
